Route #1: 74 21 61 22 64 42 43 41 56 23 63
Route #2: 75 68 2 28 62 73 1 33 6
Route #3: 30 48 47 36 69 71 60 70 20 37 5 29
Route #4: 4 27 52 46 34 67
Route #5: 7 53 14 59 19 54 13 57 15 45
Route #6: 8 35 11 66 65 38 10 58
Route #7: 17 3 44 32 9 39 40
Route #8: 51 16 49 24 18 50 25 55 31 72 12 26
Cost 736
Time 0.120038
